Minimize

75 x_0 + 10 x_1 + 15 x_2 + 50 x_3 + 80 x_4 + 95 x_5 + 25 x_6


Subject To

a0: 0 x_0 + 0 x_1 + 0 x_2 + 1 x_3 + 0 x_4 + 0 x_5 + 0 x_6 = 1
a1: 0 x_0 + 0 x_1 + 1 x_2 + 0 x_3 + 1 x_4 + 0 x_5 + 0 x_6 = 1
a2: 0 x_0 + 1 x_1 + 0 x_2 + 0 x_3 + 0 x_4 + 1 x_5 + 0 x_6 = 1
a3: 1 x_0 + 0 x_1 + 0 x_2 + 0 x_3 + 0 x_4 + 0 x_5 + 1 x_6 = 1
b0: 5 x_0 + 4 x_1 + 2 x_2 + 2 x_3 + 5 x_4 + 5 x_5 + 4 x_6 >= 12
c0: 0 x_0 + 0 x_1 + 0 x_2 + 50 x_3 + 0 x_4 + 0 x_5 + 0 x_6 <= 100
c1: 0 x_0 + 0 x_1 + 15 x_2 + 0 x_3 + 80 x_4 + 0 x_5 + 0 x_6 <= 100
c2: 0 x_0 + 10 x_1 + 0 x_2 + 0 x_3 + 0 x_4 + 95 x_5 + 0 x_6 <= 100
c3: 75 x_0 + 0 x_1 + 0 x_2 + 0 x_3 + 0 x_4 + 0 x_5 + 25 x_6 <= 100




Binary

x_0 x_1 x_2 x_3 x_4 x_5 x_6

 


End
